(set-info :smt-lib-version 2.6)
(set-logic QF_UFLRA)
(set-info :source |
MathSat group

|)
(set-info :category "random")
(set-info :status unsat)
(declare-fun x0 () Real)
(declare-fun x1 () Real)
(declare-fun x2 () Real)
(declare-fun x3 () Real)
(declare-fun x4 () Real)
(declare-fun x5 () Real)
(declare-fun x6 () Real)
(declare-fun x7 () Real)
(declare-fun x8 () Real)
(declare-fun x9 () Real)
(declare-fun x10 () Real)
(declare-fun x11 () Real)
(declare-fun x12 () Real)
(declare-fun x13 () Real)
(declare-fun x14 () Real)
(declare-fun x15 () Real)
(declare-fun x16 () Real)
(declare-fun x17 () Real)
(declare-fun x18 () Real)
(declare-fun x19 () Real)
(declare-fun x20 () Real)
(declare-fun x21 () Real)
(declare-fun x22 () Real)
(declare-fun x23 () Real)
(declare-fun x24 () Real)
(declare-fun x25 () Real)
(declare-fun x26 () Real)
(declare-fun x27 () Real)
(declare-fun x28 () Real)
(declare-fun x29 () Real)
(declare-fun x30 () Real)
(declare-fun x31 () Real)
(declare-fun x32 () Real)
(declare-fun x33 () Real)
(declare-fun x34 () Real)
(declare-fun x35 () Real)
(declare-fun x36 () Real)
(declare-fun x37 () Real)
(declare-fun x38 () Real)
(declare-fun x39 () Real)
(declare-fun f0_1 (Real) Real)
(declare-fun f0_2 (Real Real) Real)
(declare-fun f0_3 (Real Real Real) Real)
(declare-fun f0_4 (Real Real Real Real) Real)
(declare-fun P0 () Bool)
(declare-fun P1 () Bool)
(declare-fun P2 () Bool)
(declare-fun P3 () Bool)
(declare-fun P4 () Bool)
(declare-fun P5 () Bool)
(declare-fun P6 () Bool)
(declare-fun P7 () Bool)
(declare-fun P8 () Bool)
(declare-fun P9 () Bool)
(declare-fun P10 () Bool)
(declare-fun P11 () Bool)
(declare-fun P12 () Bool)
(declare-fun P13 () Bool)
(declare-fun P14 () Bool)
(declare-fun P15 () Bool)
(declare-fun P16 () Bool)
(declare-fun P17 () Bool)
(declare-fun P18 () Bool)
(declare-fun P19 () Bool)
(declare-fun P20 () Bool)
(declare-fun P21 () Bool)
(declare-fun P22 () Bool)
(declare-fun P23 () Bool)
(declare-fun P24 () Bool)
(declare-fun P25 () Bool)
(declare-fun P26 () Bool)
(declare-fun P27 () Bool)
(declare-fun P28 () Bool)
(declare-fun P29 () Bool)
(declare-fun P30 () Bool)
(declare-fun P31 () Bool)
(declare-fun P32 () Bool)
(declare-fun P33 () Bool)
(declare-fun P34 () Bool)
(declare-fun P35 () Bool)
(declare-fun P36 () Bool)
(declare-fun P37 () Bool)
(declare-fun P38 () Bool)
(declare-fun P39 () Bool)
(assert (let ((?v_126 (<= (- (- (* 29 x33) (* 28 x9)) (* 47 x33)) 55)) (?v_56 (<= (- (- (* 22 x15) (* 32 x26)) (* 57 x5)) 54)) (?v_154 (< (- (- (* 28 x16) (* 25 x23)) (* 11 x8)) 50)) (?v_27 (< (- (+ (* 26 x37) (* 46 x20)) (* 4 x10)) 21)) (?v_96 (* 26 x20)) (?v_122 (= (+ (- (* 25 x35) (* 17 x38)) (* 9 x13)) 14)) (?v_89 (< (- (- (* 46 x18) (* 41 x6)) (* 20 x28)) 33)) (?v_81 (<= (+ (- (* 4 x22) (* 5 x13)) (* 24 x13)) 2)) (?v_37 (f0_1 x39))) (let ((?v_140 (= x24 ?v_37)) (?v_26 (f0_1 x1))) (let ((?v_84 (= (f0_2 x28 x31) ?v_26)) (?v_141 (distinct (f0_2 x3 x21) (f0_1 x0))) (?v_86 (distinct x22 (f0_2 x3 x9))) (?v_24 (f0_1 x17))) (let ((?v_25 (= x4 ?v_24)) (?v_135 (distinct (f0_2 x36 x0) x8)) (?v_11 (distinct (f0_2 x30 x36) (f0_2 x26 x1))) (?v_8 (f0_1 x2))) (let ((?v_155 (= ?v_8 x4)) (?v_157 (= (f0_2 x26 x10) (f0_2 x37 x36))) (?v_59 (distinct x14 (f0_2 x5 x29))) (?v_65 (= ?v_37 x20)) (?v_73 (= (f0_2 x39 x19) x30)) (?v_52 (= ?v_26 (f0_2 x30 x22))) (?v_15 (distinct ?v_8 x36)) (?v_77 (distinct (f0_1 x16) (f0_1 x32))) (?v_124 (distinct x27 (f0_2 x22 x13))) (?v_161 (distinct ?v_24 (f0_2 x10 x6))) (?v_29 (distinct (f0_1 x30) (f0_1 x14))) (?v_189 (distinct x19 (f0_2 x12 x12))) (?v_112 (= (f0_2 x12 x18) (f0_2 x9 x9))) (?v_2 (= (f0_2 x30 x38) (f0_2 x37 x3))) (?v_41 (distinct (f0_2 x9 x36) x24)) (?v_139 (= (f0_1 x21) (f0_2 x23 x21))) (?v_79 (f0_1 x23))) (let ((?v_101 (= x11 ?v_79)) (?v_0 (= x2 x21)) (?v_45 (= (f0_2 x30 x12) x5)) (?v_125 (= (f0_1 x35) ?v_79)) (?v_146 (distinct (f0_1 x6) (f0_2 x36 x5))) (?v_33 (= ?v_24 x37)) (?v_147 (f0_1 x5))) (let ((?v_95 (distinct (f0_2 x31 x29) ?v_147)) (?v_192 (distinct (f0_2 x22 x21) ?v_147)) (?v_117 (distinct ?v_8 x33)) (?v_143 (distinct x12 x36)) (?v_152 (= x27 x23)) (?v_34 (distinct x17 x6)) (?v_47 (= (f0_2 x8 x38) (f0_2 x21 x17))) (?v_5 (distinct (f0_2 x11 x2) (f0_1 x10))) (?v_78 (distinct (f0_1 x29) (f0_2 x9 x16))) (?v_62 (distinct (f0_2 x15 x22) (f0_2 x0 x29))) (?v_50 (= (f0_2 x36 x30) (f0_2 x19 x26))) (?v_42 (not ?v_112)) (?v_121 (not ?v_0)) (?v_58 (not P18)) (?v_63 (not P12)) (?v_3 (not P32)) (?v_18 (not P4)) (?v_106 (not ?v_2)) (?v_54 (not ?v_124)) (?v_180 (not P17)) (?v_83 (not P33)) (?v_20 (not P15))) (let ((?v_51 (not ?v_117)) (?v_9 (not ?v_101)) (?v_87 (not ?v_5)) (?v_30 (not ?v_11)) (?v_36 (not ?v_15)) (?v_43 (not P36)) (?v_165 (not P35)) (?v_169 (not ?v_56)) (?v_21 (not P28)) (?v_69 (not ?v_29)) (?v_38 (not ?v_45)) (?v_22 (not P30)) (?v_187 (not ?v_81)) (?v_176 (not ?v_139)) (?v_23 (not P34)) (?v_76 (not P23)) (?v_32 (not P6)) (?v_133 (not ?v_140)) (?v_166 (not ?v_33)) (?v_75 (not ?v_25)) (?v_53 (not ?v_84)) (?v_57 (not ?v_27)) (?v_107 (not ?v_157)) (?v_64 (not P22)) (?v_93 (not P25)) (?v_70 (not ?v_59)) (?v_145 (not ?v_50)) (?v_90 (not ?v_189)) (?v_74 (not P19)) (?v_203 (not ?v_47)) (?v_67 (not ?v_52)) (?v_164 (not P29)) (?v_82 (not P20)) (?v_85 (not P37)) (?v_115 (not ?v_65)) (?v_194 (not P38)) (?v_198 (not P8)) (?v_170 (not P1)) (?v_99 (not P39)) (?v_129 (not ?v_73)) (?v_188 (not ?v_77)) (?v_91 (not P24)) (?v_150 (not ?v_78)) (?v_97 (not P10)) (?v_142 (not ?v_86)) (?v_151 (not ?v_34)) (?v_190 (not P11)) (?v_110 (not P26)) (?v_191 (not P5)) (?v_131 (not P31)) (?v_132 (not ?v_89)) (?v_111 (not P2)) (?v_130 (not ?v_122)) (?v_200 (not ?v_125)) (?v_178 (not ?v_126)) (?v_137 (not ?v_62)) (?v_144 (not ?v_135)) (?v_199 (not P3)) (?v_138 (not P7)) (?v_193 (not ?v_141)) (?v_160 (not P14)) (?v_156 (not ?v_146)) (?v_168 (not ?v_154)) (?v_153 (not ?v_152)) (?v_159 (not P21)) (?v_177 (not P9))) (let ((?v_201 (or ?v_42 ?v_177)) (?v_158 (not ?v_143)) (?v_172 (not ?v_161)) (?v_184 (not P13)) (?v_182 (not ?v_155)) (?v_195 (not ?v_41)) (?v_196 (not ?v_95)) (?v_197 (not P16)) (?v_202 (not P27)) (?v_205 (not ?v_192)) (?v_108 (< (+ (* 12 x17) (* 47 x32) (* 31 x31)) 31)) (?v_55 (< (- (* 13 x16) (* 51 x35)) 45)) (?v_71 (< (- (+ (* 35 x21) x32) (* 36 x32)) 48))) (let ((?v_127 (not ?v_71)) (?v_123 (< (+ (* 51 x19) ?v_96) 0))) (let ((?v_162 (not ?v_123)) (?v_173 (not ?v_108)) (?v_163 (not ?v_55)) (?v_10 (distinct (+ (- (* (- 52) x32) (* 52 x16)) (* 46 x37)) 2)) (?v_7 (<= (- (+ (* (- 47) x19) (* 26 x2)) x31) (- 48)))) (let ((?v_102 (not ?v_7)) (?v_1 (<= (- (+ (* (- 7) x39) (* 53 x4)) (* 40 x6)) (- 21))) (?v_44 (< (+ (- (* (- 51) x21) (* 51 x11)) (* 40 x1)) 12)) (?v_68 (distinct (- ?v_96 (* 2 x10)) (- 8)))) (let ((?v_4 (not ?v_1)) (?v_109 (< (+ (- (* 29 x32) (* 3 x2)) (* 41 x37)) (- 40))) (?v_28 (< (- (- (* (- 43) x14) (* 10 x39)) (* 49 x37)) 41)) (?v_167 (<= (- (- (* 8 x8) (* 38 x7)) (* 5 x32)) (- 9)))) (let ((?v_46 (not ?v_167)) (?v_6 (<= (+ (- (* (- 33) x28) (* 52 x14)) (* 23 x11)) 26))) (let ((?v_39 (not ?v_6)) (?v_49 (< (+ (* (- 33) x38) (* 11 x21) (* 54 x11)) 52))) (let ((?v_13 (not ?v_49)) (?v_16 (= (+ (* 5 x14) (* 33 x5) (* 7 x28)) (- 53))) (?v_12 (< (+ (* (- 43) x29) (* 34 x21) (* 40 x14)) (- 15))) (?v_17 (<= (+ (- (* (- 4) x21) 0) (* 20 x36)) 50))) (let ((?v_14 (not ?v_12)) (?v_88 (< (+ (* (- 39) x12) (* 56 x28) (* 35 x34)) 43))) (let ((?v_114 (not ?v_88)) (?v_31 (< (- (+ (* (- 50) x15) (* 39 x1)) (* 16 x30)) (- 1))) (?v_40 (< (- (- (* (- 12) x2) (* 12 x2)) (* 57 x3)) 58))) (let ((?v_98 (not ?v_40)) (?v_103 (<= (- (- (* (- 42) x33) (* 5 x34)) (* 41 x36)) (- 31)))) (let ((?v_19 (not ?v_103)) (?v_105 (not ?v_17)) (?v_60 (< (+ (- (* 57 x13) (* 15 x10)) (* 29 x17)) (- 5))) (?v_35 (< (+ (- (* (- 35) x9) 0) (* 39 x29)) 44)) (?v_104 (<= (- (- (* (- 23) x38) (* 57 x2)) (* 14 x24)) 30))) (let ((?v_61 (not ?v_104)) (?v_48 (= (- (+ (* (- 13) x35) (* 23 x35)) (* 14 x1)) 44))) (let ((?v_185 (not ?v_48)) (?v_80 (not ?v_31)) (?v_119 (< (+ (- (* 12 x22) (* 18 x5)) (* 33 x34)) (- 6)))) (let ((?v_181 (not ?v_119)) (?v_72 (< (+ (- (* (- 55) x16) (* 45 x32)) (* 52 x31)) (- 10)))) (let ((?v_148 (not ?v_72)) (?v_92 (not ?v_44)) (?v_183 (<= (+ (- (* (- 6) x2) (* 28 x13)) (* 25 x5)) (- 38)))) (let ((?v_120 (not ?v_183)) (?v_116 (not ?v_10)) (?v_66 (not ?v_60)) (?v_136 (not ?v_68)) (?v_113 (not ?v_16)) (?v_128 (<= (+ (- (* 4 x17) (* 2 x4)) (* 40 x19)) (- 19)))) (let ((?v_134 (not ?v_128)) (?v_174 (not ?v_28)) (?v_94 (<= (+ (- (* (- 24) x17) (* 26 x9)) (* 48 x7)) 18))) (let ((?v_118 (not ?v_94)) (?v_100 (not ?v_35)) (?v_179 (distinct (- (- (* (- 13) x23) (* 46 x22)) (* 12 x18)) 43)) (?v_149 (< (+ (* 29 x21) (* 25 x39)) (- 40))) (?v_175 (= (+ (- (* 37 x26) (* 21 x13)) (* 39 x28)) (- 42))) (?v_171 (not ?v_109))) (let ((?v_186 (not ?v_175)) (?v_204 (not ?v_149))) (and (and (and (and (and (and (and (and (and (and (and (and (and (and (and (and (and (and (and (and (and (and (and (and (and (and (and (and (and (and (and (and (and (and (and (and (and (and (and (and (and (and (and (and (and (and (and (and (and (and (and (and (and (and (and (and (and (and (and (and (and (and (and (and (and (and (and (and (and (and (and (and (and (and (and (and (and (and (and (and (and (and (and (and (and (and (and (and (and (and (and (and (and (and (and (and (and (and (and (and (and (and (and (and (and (and (and (and (and (and (and (and (and (and (and (and (and (and (and (and (and (and (and (and (and (and (and (and (and (and (and (and (and (and (and (and (and (and (and (and (and (and (and (and (and (and (and (and (and (and (and (and (and (and (and (and (and (and (and (and (and (and (and (and (and (and (and (and (and (and (and (and (and (and (and (and (and (and (and (and (and (and (and (and (and (and (and (and (and (and (and (and (and (and (and (and (and (and (and (and (and (and (and (and (and (and (and (and (and (and (and (and (and (and (and (and (and (and (and (and (and (and (and (and (and (and (and (and (and (and (and (and (and (and (and (and (and (and (and (and (and (and (and (and (and (and (and (and (and (and (and (and (and (and (and (and (and (and (and (and (and (and (and (and (and (and (and (and (and (and (and (and (and (and (and (and (and (and (and (and (and (and (and (and (and (and (and (and (and (and (and (and (and (and (and (and (and (and (and (and (and (and (and (and (and (and (and (and (and (and (and (and (and (and (and (and (and (and (and (and (and (and (and (and (and (and (and (and (and (and (and (and (and (and (and (and (and (and (and (and (and (and (and (and (and (and (and (and (and (and (and (and (and (and (and (and (and (and (and (and (and (and (and (and (and (and (and (and (and (and (and (and (and (and (and (and (and (and (and (and (and (and (and (and (and (and (and (and (and (and (and (and (and (and (and (and (and (and (and (and (and (and (and (and (and (and (and (and (and (and (and (and (and (and (and (and (and (and (and (and (and (and (and (and (and (and (and (and (and (and (and (and (and (and (and (and (and (and (and (and (and (and (and (and (and (and (and (and (and (and (and (and (and (and (and (and (and (and (and (and (and (and (and (and (and (and (and (and (and (and (and (and (and (and (and (and (and (and (and (or (or ?v_10 ?v_0) ?v_102) (or (or ?v_42 P22) ?v_1)) (or (or ?v_121 ?v_44) ?v_68)) (or (or ?v_58 ?v_62) ?v_2)) (or (or ?v_25 ?v_63) ?v_27)) (or (or ?v_3 ?v_4) P8)) (or (or ?v_18 ?v_106) ?v_54)) (or (or ?v_180 P31) ?v_109)) (or (or ?v_83 ?v_5) ?v_20)) (or (or P2 ?v_28) ?v_51)) (or (or ?v_46 ?v_3) ?v_39)) (or (or ?v_4 ?v_9) ?v_87)) (or (or ?v_13 ?v_30) ?v_16)) (or (or ?v_6 ?v_7) P32)) (or (or ?v_36 ?v_9) ?v_10)) (or (or ?v_126 ?v_43) ?v_12)) (or (or ?v_3 ?v_73) ?v_11)) (or (or P5 ?v_17) ?v_14)) (or (or ?v_165 P39) ?v_169)) (or (or P28 ?v_21) ?v_114)) (or (or ?v_13 ?v_69) ?v_38)) (or (or ?v_22 ?v_14) P24)) (or (or ?v_31 ?v_47) P38)) (or (or ?v_15 ?v_187) ?v_176)) (or (or P16 ?v_98) ?v_19)) (or (or ?v_23 ?v_16) P3)) (or (or ?v_108 P26) ?v_105)) (or (or ?v_18 ?v_60) ?v_19)) (or (or ?v_76 P26) ?v_135)) (or (or ?v_52 ?v_20) ?v_41)) (or (or P6 ?v_21) ?v_4)) (or (or ?v_22 ?v_32) ?v_133)) (or (or ?v_23 P18) ?v_15)) (or (or ?v_166 ?v_75) ?v_35)) (or (or ?v_53 ?v_27) ?v_61)) (or (or ?v_28 ?v_29) ?v_86)) (or (or P18 P39) ?v_185)) (or (or P12 ?v_34) ?v_30)) (or (or ?v_57 ?v_107) ?v_64)) (or (or ?v_80 ?v_55) ?v_32)) (or (or ?v_181 ?v_33) ?v_34)) (or (or ?v_161 P27) ?v_28)) (or (or P4 ?v_35) ?v_36)) (or (or ?v_65 ?v_93) ?v_77)) (or (or ?v_38 ?v_70) ?v_39)) (or (or ?v_148 ?v_40) ?v_145)) (or (or ?v_41 ?v_30) ?v_42)) (or (or ?v_43 ?v_39) ?v_92)) (or (or ?v_45 P7) P32)) (or (or ?v_120 ?v_12) ?v_90)) (or (or ?v_46 ?v_47) ?v_42)) (or (or ?v_18 ?v_48) ?v_49)) (or (or ?v_50 ?v_51) ?v_52)) (or (or ?v_34 ?v_53) ?v_74)) (or (or ?v_54 P7) P30)) (or (or ?v_89 ?v_55) P28)) (or (or ?v_0 ?v_127) ?v_45)) (or (or P13 ?v_34) ?v_56)) (or (or P13 ?v_116) ?v_57)) (or (or ?v_58 ?v_44) P1)) (or (or ?v_32 ?v_59) ?v_203)) (or (or ?v_66 ?v_67) P15)) (or (or ?v_21 ?v_61) P26)) (or (or ?v_62 P9) ?v_0)) (or (or ?v_164 ?v_82) ?v_63)) (or (or ?v_5 P1) ?v_0)) (or (or ?v_85 ?v_57) ?v_64)) (or (or ?v_115 ?v_3) ?v_66)) (or (or ?v_67 ?v_50) ?v_78)) (or (or ?v_28 ?v_136) ?v_69)) (or (or ?v_194 P30) ?v_25)) (or (or ?v_29 ?v_15) P21)) (or (or ?v_198 ?v_70) ?v_170)) (or (or ?v_10 ?v_99) ?v_71)) (or (or ?v_64 ?v_72) ?v_113)) (or (or ?v_129 ?v_74) ?v_16)) (or (or ?v_75 ?v_51) ?v_76)) (or (or ?v_62 ?v_95) P27)) (or (or ?v_188 ?v_91) ?v_150)) (or (or ?v_125 ?v_80) ?v_81)) (or (or ?v_97 ?v_64) ?v_20)) (or (or ?v_82 ?v_67) ?v_134)) (or (or ?v_47 P11) ?v_83)) (or (or ?v_84 P16) ?v_174)) (or (or ?v_51 P15) ?v_85)) (or (or ?v_3 ?v_142) ?v_118)) (or (or ?v_87 ?v_88) ?v_0)) (or (or ?v_89 ?v_90) ?v_29)) (or (or P29 ?v_100) ?v_91)) (or (or ?v_151 ?v_87) ?v_92)) (or (or ?v_5 P10) ?v_93)) (or (or ?v_141 ?v_94) ?v_73)) (or (or P34 P23) ?v_95)) (or (or ?v_27 ?v_162) ?v_90)) (or (or P15 ?v_97) P39)) (or (or P38 ?v_122) ?v_48)) (or (or ?v_66 P34) ?v_98)) (or (or ?v_16 ?v_86) ?v_20)) (or (or ?v_99 P35) P13)) (or (or ?v_100 ?v_101) ?v_46)) (or (or ?v_44 ?v_102) ?v_60)) (or (or ?v_190 ?v_100) ?v_103)) (or (or ?v_28 P7) ?v_104)) (or (or ?v_105 ?v_58) ?v_67)) (or (or ?v_105 ?v_106) P10)) (or (or ?v_107 P33) ?v_143)) (or (or ?v_66 ?v_56) ?v_14)) (or (or ?v_54 ?v_78) ?v_110)) (or (or P26 P34) ?v_31)) (or (or ?v_42 ?v_191) ?v_179)) (or (or ?v_34 ?v_90) ?v_61)) (or (or ?v_108 ?v_131) ?v_132)) (or (or ?v_111 ?v_40) ?v_109)) (or (or ?v_110 ?v_111) ?v_63)) (or (or P2 ?v_107) ?v_11)) (or (or ?v_100 ?v_112) ?v_113)) (or (or ?v_42 P7) ?v_1)) (or (or P0 ?v_114) P19)) (or (or P35 P17) ?v_115)) (or (or ?v_116 ?v_146) P34)) (or (or P19 ?v_117) ?v_110)) (or (or ?v_71 P23) ?v_52)) (or (or ?v_118 ?v_51) P18)) (or (or ?v_39 ?v_76) P32)) (or (or ?v_23 ?v_119) ?v_29)) (or (or P26 P9) ?v_120)) (or (or ?v_36 ?v_121) ?v_22)) (or (or ?v_130 P39) P6)) (or (or ?v_67 ?v_101) ?v_106)) (or (or ?v_123 ?v_38) ?v_66)) (or (or ?v_97 ?v_124) ?v_58)) (or (or ?v_200 ?v_9) ?v_178)) (or (or P6 ?v_69) ?v_127)) (or (or ?v_53 P5) ?v_30)) (or (or ?v_128 ?v_46) ?v_155)) (or (or ?v_47 ?v_129) ?v_130)) (or (or ?v_38 ?v_103) P1)) (or (or ?v_86 ?v_101) P19)) (or (or P37 ?v_131) ?v_25)) (or (or ?v_74 ?v_14) P2)) (or (or ?v_132 P26) ?v_133)) (or (or ?v_128 ?v_134) ?v_137)) (or (or ?v_56 ?v_87) ?v_144)) (or (or ?v_49 ?v_49) ?v_28)) (or (or ?v_199 ?v_138) P5)) (or (or ?v_114 P5) ?v_136)) (or (or P34 ?v_137) P23)) (or (or ?v_100 P36) P39)) (or (or ?v_138 ?v_30) ?v_72)) (or (or P34 ?v_86) ?v_88)) (or (or ?v_77 ?v_54) ?v_64)) (or (or ?v_152 ?v_127) ?v_139)) (or (or ?v_47 P28) ?v_87)) (or (or P4 ?v_21) ?v_115)) (or (or P18 ?v_5) ?v_117)) (or (or ?v_105 ?v_55) ?v_110)) (or (or P18 ?v_69) ?v_48)) (or (or ?v_134 ?v_140) ?v_130)) (or (or ?v_128 ?v_33) ?v_136)) (or (or ?v_92 ?v_193) P20)) (or (or ?v_89 ?v_54) ?v_142)) (or (or ?v_55 P21) ?v_0)) (or (or ?v_70 ?v_143) ?v_7)) (or (or ?v_160 ?v_44) ?v_144)) (or (or ?v_149 ?v_145) ?v_120)) (or (or ?v_136 ?v_133) ?v_135)) (or (or ?v_156 ?v_18) ?v_99)) (or (or ?v_192 ?v_109) ?v_22)) (or (or ?v_148 ?v_135) ?v_149)) (or (or ?v_150 ?v_173) ?v_132)) (or (or ?v_60 ?v_15) ?v_69)) (or (or ?v_49 P10) ?v_57)) (or (or ?v_14 ?v_46) ?v_168)) (or (or P22 ?v_1) P7)) (or (or ?v_29 ?v_3) P29)) (or (or ?v_48 ?v_21) ?v_139)) (or (or ?v_151 ?v_22) ?v_153)) (or (or ?v_101 ?v_92) ?v_163)) (or (or P29 ?v_153) ?v_159)) (or ?v_201 ?v_158)) (or (or ?v_55 ?v_33) ?v_154)) (or (or ?v_66 ?v_155) (not P0))) (or (or P25 P14) ?v_119)) (or (or ?v_118 ?v_80) P0)) (or (or ?v_4 ?v_41) ?v_7)) (or (or ?v_22 ?v_93) ?v_140)) (or (or ?v_102 ?v_109) ?v_55)) (or (or ?v_141 ?v_136) P0)) (or (or ?v_144 ?v_156) ?v_175)) (or (or ?v_84 ?v_63) P19)) (or (or ?v_86 ?v_32) ?v_3)) (or (or ?v_1 ?v_33) ?v_9)) (or (or P27 ?v_157) ?v_13)) (or (or ?v_88 ?v_75) ?v_40)) (or (or ?v_158 ?v_19) ?v_159)) (or (or ?v_160 ?v_73) ?v_172)) (or (or ?v_159 ?v_171) ?v_139)) (or (or ?v_154 ?v_125) ?v_87)) (or (or ?v_137 ?v_81) ?v_144)) (or (or P27 ?v_7) P20)) (or (or ?v_184 ?v_10) ?v_162)) (or (or ?v_139 ?v_163) ?v_65)) (or (or ?v_95 ?v_102) ?v_143)) (or (or ?v_111 P3) ?v_127)) (or (or ?v_131 ?v_71) ?v_99)) (or (or ?v_158 ?v_39) ?v_164)) (or (or ?v_165 ?v_2) ?v_182)) (or (or ?v_83 ?v_55) ?v_16)) (or (or P17 ?v_116) ?v_4)) (or (or ?v_32 ?v_153) P2)) (or (or P39 ?v_108) ?v_137)) (or (or ?v_135 ?v_109) ?v_53)) (or (or P19 ?v_60) ?v_112)) (or (or ?v_18 ?v_127) ?v_21)) (or (or ?v_126 ?v_74) ?v_156)) (or (or P31 ?v_115) ?v_84)) (or (or ?v_74 P25) ?v_153)) (or (or ?v_36 ?v_81) ?v_55)) (or (or ?v_82 ?v_166) ?v_13)) (or (or ?v_167 ?v_153) ?v_195)) (or (or ?v_113 ?v_162) ?v_38)) (or (or ?v_113 ?v_168) ?v_52)) (or (or P39 ?v_17) P17)) (or (or ?v_111 ?v_115) P8)) (or (or ?v_28 ?v_137) ?v_71)) (or (or ?v_169 ?v_170) ?v_154)) (or (or ?v_11 ?v_35) P23)) (or (or ?v_171 ?v_33) ?v_85)) (or (or ?v_154 ?v_3) P18)) (or (or ?v_0 P11) ?v_56)) (or (or ?v_169 ?v_55) ?v_17)) (or (or ?v_150 ?v_155) ?v_196)) (or (or ?v_75 ?v_167) ?v_44)) (or (or P29 ?v_172) ?v_17)) (or (or ?v_113 ?v_173) ?v_133)) (or (or P36 ?v_174) ?v_141)) (or (or ?v_186 ?v_47) ?v_176)) (or (or ?v_116 ?v_48) ?v_172)) (or (or ?v_84 ?v_197) ?v_87)) (or (or ?v_153 ?v_177) P11)) (or (or ?v_178 ?v_179) ?v_5)) (or (or ?v_32 ?v_78) ?v_104)) (or (or ?v_180 ?v_60) ?v_172)) (or (or ?v_41 ?v_63) ?v_31)) (or (or ?v_143 ?v_81) ?v_30)) (or (or ?v_151 ?v_41) ?v_181)) (or (or P3 P22) ?v_106)) (or (or ?v_98 ?v_21) ?v_149)) (or (or ?v_157 ?v_3) ?v_162)) (or (or ?v_182 ?v_97) ?v_74)) (or (or ?v_160 ?v_80) ?v_123)) (or (or P24 ?v_183) ?v_46)) (or (or ?v_149 ?v_123) ?v_32)) (or (or ?v_66 P15) ?v_85)) (or (or ?v_117 ?v_31) ?v_130)) (or (or ?v_57 ?v_3) ?v_104)) (or (or ?v_75 P36) P38)) (or (or P12 ?v_62) ?v_184)) (or (or ?v_110 ?v_151) ?v_65)) (or (or P35 ?v_85) ?v_132)) (or (or P31 ?v_169) ?v_9)) (or (or ?v_124 ?v_185) ?v_32)) (or (or P1 ?v_179) ?v_202)) (or (or ?v_112 P6) ?v_186)) (or (or ?v_99 ?v_41) ?v_67)) (or (or ?v_136 P35) ?v_126)) (or (or ?v_186 ?v_11) ?v_145)) (or (or ?v_34 ?v_31) ?v_51)) (or (or ?v_119 ?v_187) ?v_111)) (or (or P9 ?v_44) ?v_136)) (or (or ?v_114 ?v_31) P31)) (or (or ?v_32 ?v_184) ?v_17)) (or (or ?v_188 ?v_36) ?v_6)) (or (or P6 P14) ?v_132)) (or (or ?v_2 ?v_40) ?v_13)) (or (or ?v_184 ?v_20) ?v_180)) (or (or ?v_175 ?v_139) ?v_54)) (or (or ?v_148 P16) ?v_170)) (or (or ?v_189 ?v_105) ?v_14)) (or (or ?v_181 ?v_77) ?v_190)) (or (or ?v_87 ?v_178) ?v_142)) (or (or ?v_27 ?v_49) ?v_119)) (or (or ?v_112 ?v_137) (not ?v_179))) (or (or ?v_66 ?v_9) ?v_69)) (or (or ?v_133 ?v_33) ?v_60)) (or (or ?v_146 ?v_7) P20)) (or (or ?v_9 ?v_31) P3)) (or (or ?v_173 ?v_50) ?v_167)) (or (or ?v_141 P25) ?v_187)) (or (or ?v_191 ?v_74) ?v_205)) (or (or P28 P1) P4)) (or (or ?v_188 ?v_15) ?v_193)) (or (or ?v_97 ?v_29) ?v_20)) (or (or ?v_88 ?v_180) ?v_162)) (or (or ?v_125 ?v_48) ?v_80)) (or (or ?v_159 ?v_165) ?v_76)) (or (or ?v_152 ?v_105) ?v_168)) (or (or ?v_188 P15) ?v_25)) (or (or ?v_168 ?v_189) ?v_116)) (or (or ?v_83 ?v_141) ?v_100)) (or (or ?v_171 ?v_100) ?v_183)) (or (or ?v_109 ?v_130) ?v_194)) (or (or P8 ?v_23) ?v_195)) (or (or ?v_77 ?v_143) ?v_29)) (or (or ?v_48 ?v_153) ?v_61)) (or (or ?v_112 ?v_5) P21)) (or (or ?v_179 P3) P19)) (or (or P2 ?v_138) ?v_131)) (or (or ?v_204 ?v_40) ?v_146)) (or (or ?v_65 ?v_55) ?v_153)) (or (or P11 P15) ?v_158)) (or (or P39 ?v_135) ?v_63)) (or (or ?v_15 ?v_55) P28)) (or (or ?v_15 ?v_175) ?v_9)) (or (or ?v_51 ?v_46) ?v_130)) (or (or P32 ?v_173) ?v_107)) (or (or ?v_127 ?v_18) P18)) (or (or ?v_128 ?v_155) ?v_16)) (or (or ?v_127 P21) ?v_129)) (or (or P27 ?v_63) P1)) (or (or P19 ?v_105) ?v_52)) (or (or ?v_70 ?v_90) ?v_41)) (or (or P13 ?v_157) ?v_98)) (or (or ?v_36 P14) P17)) (or (or ?v_104 ?v_191) ?v_138)) (or (or ?v_68 P6) ?v_175)) (or (or P39 ?v_196) ?v_0)) (or (or ?v_197 ?v_125) ?v_93)) (or (or P31 ?v_86) ?v_168)) (or (or ?v_193 ?v_60) ?v_85)) (or (or ?v_123 P21) ?v_170)) (or (or ?v_142 ?v_9) ?v_130)) (or (or ?v_178 ?v_166) P39)) (or (or ?v_159 ?v_1) ?v_34)) (or (or ?v_27 ?v_198) P30)) (or (or ?v_84 ?v_184) ?v_135)) (or (or P38 ?v_1) ?v_188)) (or (or ?v_159 ?v_108) ?v_15)) (or (or ?v_21 ?v_108) ?v_172)) (or (or ?v_135 ?v_136) ?v_86)) (or (or ?v_88 ?v_145) ?v_15)) (or (or ?v_33 P8) ?v_199)) (or (or ?v_25 ?v_29) ?v_159)) (or (or P34 ?v_31) ?v_174)) (or (or ?v_32 ?v_199) ?v_187)) (or (or ?v_85 ?v_19) ?v_172)) (or (or ?v_189 ?v_198) ?v_185)) (or (or ?v_142 ?v_65) ?v_62)) (or (or ?v_45 ?v_200) ?v_165)) (or (or ?v_170 P24) P0)) (or (or P16 P11) P29)) (or (or ?v_124 ?v_44) ?v_38)) (or (or ?v_100 ?v_154) ?v_87)) (or (or ?v_73 ?v_36) ?v_94)) (or (or ?v_182 ?v_180) ?v_114)) (or (or ?v_53 ?v_89) ?v_21)) (or (or ?v_74 ?v_76) P29)) (or (or ?v_148 ?v_42) ?v_128)) (or (or ?v_181 ?v_196) ?v_41)) (or (or P39 ?v_193) P4)) (or (or P19 ?v_57) ?v_2)) (or (or ?v_43 ?v_110) ?v_78)) (or (or ?v_140 P11) ?v_3)) (or (or ?v_60 ?v_109) P34)) (or (or ?v_192 ?v_11) ?v_104)) (or (or P10 ?v_94) ?v_93)) (or ?v_201 ?v_193)) (or (or ?v_51 ?v_146) P19)) (or (or ?v_139 ?v_166) ?v_140)) (or (or ?v_166 ?v_120) P38)) (or (or ?v_189 ?v_148) ?v_192)) (or (or ?v_94 ?v_191) ?v_189)) (or (or ?v_99 ?v_200) ?v_196)) (or (or ?v_104 ?v_87) ?v_43)) (or (or ?v_177 ?v_14) P20)) (or (or P18 ?v_139) ?v_55)) (or (or ?v_108 ?v_91) ?v_130)) (or (or ?v_184 ?v_90) P3)) (or (or ?v_9 ?v_25) ?v_88)) (or (or ?v_90 ?v_125) ?v_114)) (or (or P35 P32) ?v_114)) (or (or ?v_170 ?v_15) ?v_87)) (or (or ?v_35 ?v_69) ?v_155)) (or (or ?v_151 ?v_6) P0)) (or (or ?v_136 ?v_47) ?v_200)) (or (or ?v_39 ?v_47) P39)) (or (or ?v_14 ?v_52) P26)) (or (or ?v_88 P7) ?v_56)) (or (or ?v_108 P25) ?v_189)) (or (or ?v_171 ?v_202) ?v_126)) (or (or ?v_171 ?v_68) P13)) (or (or ?v_203 ?v_34) ?v_134)) (or (or ?v_51 ?v_135) ?v_174)) (or (or P21 ?v_159) ?v_184)) (or (or ?v_167 P10) ?v_111)) (or (or ?v_38 ?v_134) ?v_75)) (or (or ?v_0 ?v_47) P26)) (or (or ?v_84 ?v_30) ?v_167)) (or (or P7 ?v_181) ?v_106)) (or (or ?v_145 P26) ?v_113)) (or (or ?v_17 ?v_202) ?v_143)) (or (or ?v_121 ?v_109) ?v_194)) (or (or ?v_17 ?v_158) ?v_142)) (or (or ?v_35 P15) ?v_54)) (or (or ?v_86 P30) ?v_175)) (or (or ?v_155 ?v_71) ?v_18)) (or (or P23 ?v_204) ?v_53)) (or (or ?v_87 ?v_203) P2)) (or (or ?v_118 ?v_114) ?v_1)) (or (or ?v_99 ?v_180) ?v_144)) (or (or ?v_134 ?v_50) ?v_36)) (or (or ?v_18 ?v_178) P2)) (or (or ?v_60 ?v_114) ?v_167)) (or (or ?v_124 P1) ?v_121)) (or (or ?v_23 ?v_143) ?v_118)) (or (or ?v_67 ?v_160) ?v_93)) (or (or ?v_205 ?v_197) ?v_10)) (or (or ?v_54 ?v_49) ?v_10)) (or (or ?v_196 ?v_55) ?v_46)) (or (or ?v_45 ?v_88) ?v_173)) (or (or ?v_48 ?v_128) ?v_9)) (or (or ?v_4 ?v_4) ?v_84)) (or (or ?v_48 P34) ?v_76)) (or (or P1 ?v_159) P37)) (or (or ?v_82 ?v_154) P9)) (or (or ?v_82 ?v_137) ?v_112)) (or (or ?v_168 ?v_1) ?v_192)) (or (or ?v_120 ?v_155) ?v_198)) (or (or ?v_156 ?v_115) ?v_101)) (or (or ?v_120 ?v_170) ?v_97)) (or (or ?v_119 ?v_5) ?v_122)) (or (or ?v_138 ?v_89) P15)) (or (or ?v_53 ?v_142) ?v_52)) (or (or ?v_103 ?v_53) ?v_137)) (or (or ?v_172 ?v_71) ?v_42)) (or (or ?v_9 ?v_110) P13)) (or (or P28 ?v_132) ?v_178)) (or (or ?v_107 ?v_80) ?v_108)) (or (or ?v_6 ?v_166) ?v_64)) (or (or ?v_163 P27) ?v_152)) (or (or ?v_68 ?v_176) ?v_163)) (or (or ?v_170 ?v_180) ?v_179)) (or (or ?v_191 P37) ?v_197)) (or (or ?v_107 ?v_132) ?v_11)) (or (or ?v_121 P37) ?v_69)) (or (or ?v_143 P28) ?v_203)) (or (or ?v_163 P7) ?v_9)) (or (or ?v_94 ?v_34) ?v_62)) (or (or ?v_91 ?v_115) ?v_184)) (or (or ?v_10 ?v_185) ?v_145)) (or (or ?v_45 P27) ?v_50)) (or (or ?v_161 P30) P38)) (or (or ?v_57 ?v_55) ?v_193)) (or (or ?v_142 ?v_105) ?v_93)) (or (or ?v_203 ?v_114) ?v_155)) (or (or ?v_90 ?v_189) ?v_88)) (or (or ?v_188 ?v_145) ?v_119)) (or (or ?v_14 ?v_174) P33)) (or (or ?v_74 ?v_135) ?v_73)) (or (or P8 ?v_190) ?v_177)) (or (or ?v_156 ?v_77) ?v_169)) (or (or ?v_126 ?v_203) ?v_13)) (or (or ?v_76 ?v_196) P25)) (or (or ?v_111 ?v_124) ?v_9)) (or (or ?v_123 ?v_173) ?v_138)) (or (or ?v_154 ?v_113) ?v_18)) (or (or ?v_161 ?v_167) ?v_142)) (or (or ?v_174 ?v_202) ?v_188)) (or (or ?v_80 ?v_146) ?v_99)) (or (or ?v_200 ?v_175) ?v_49)) (or (or ?v_137 ?v_9) ?v_114)) (or (or ?v_77 ?v_154) P7)) (or (or ?v_90 ?v_180) ?v_161)) (or (or ?v_16 ?v_196) P15)) (or (or ?v_109 ?v_189) ?v_135)) (or (or ?v_29 ?v_111) ?v_144)) (or (or P22 ?v_120) ?v_107)) (or (or ?v_78 ?v_97) ?v_33)) (or (or ?v_191 P15) ?v_89)) (or (or ?v_121 ?v_100) ?v_103)))))))))))))))))))))))))))))))
(check-sat)
(exit)
